(set-info :source |printed by MathSAT|)
(declare-fun |!{$(in_main#0)<$(in__strcmp#5)<src>>}| () Int)
(declare-fun |!{$(in_main#0)<$(in__strcmp#5)<src>>}.next| () Int)
(declare-fun |!{$(in_main#0)<$(in__strcmp#5)<dst>>}| () Int)
(declare-fun |!{$(in_main#0)<$(in__strcmp#5)<dst>>}.next| () Int)
(declare-fun |!{$(in_main#0)<$(in__strcmp#5)<N>>}| () Int)
(declare-fun |!{$(in_main#0)<$(in__strcmp#5)<N>>}.next| () Int)
(declare-fun |!{$(in_main#0)<$(in__strcmp#5)<i>>}| () Int)
(declare-fun |!{$(in_main#0)<$(in__strcmp#5)<i>>}.next| () Int)
(declare-fun |!{$(in_main#0)<N>}| () Int)
(declare-fun |!{$(in_main#0)<N>}.next| () Int)
(declare-fun |!{$(in_main#0)<&a>}| () Int)
(declare-fun |!{$(in_main#0)<&a>}.next| () Int)
(declare-fun |!{$(in_main#0)<&b>}| () Int)
(declare-fun |!{$(in_main#0)<&b>}.next| () Int)
(declare-fun |!{$(in_main#0)<i>}| () Int)
(declare-fun |!{$(in_main#0)<i>}.next| () Int)
(declare-fun |!{$(in_main#0)<x>}| () Int)
(declare-fun |!{$(in_main#0)<x>}.next| () Int)
(declare-fun |!{%memaddr}| () Int)
(declare-fun |!{%memaddr}.next| () Int)
(declare-fun |!{%mem.0}| () (Array Int Int))
(declare-fun |!{%mem.0}.next| () (Array Int Int))
(declare-fun |!{$(in_main#0)<$(in___VERIFIER_nondet_int#2)<h#<__VERIFIER_nondet_int.return>>>}| () Int)
(declare-fun |!{$(in_main#0)<$(in___VERIFIER_nondet_int#3)<h#<__VERIFIER_nondet_int.return>>>}| () Int)
(declare-fun |!{$(in_main#0)<$(in___VERIFIER_nondet_int#4)<h#<__VERIFIER_nondet_int.return>>>}| () Int)
(declare-fun !pc () Int)
(declare-fun !pc.next () Int)
(declare-fun |%{$(in_main#0)<x>}#1| () Int)
(declare-fun |%{$(in_main#0)<$(in__strcmp#5)<_strcmp.return>>}#2| () Int)
(define-fun .def_54 () Int (! !pc :next !pc.next))
(define-fun .def_57 () Bool (! (= .def_54 2) :init true))
(define-fun .def_245 () Bool (= .def_54 45))
(define-fun .def_203 () Bool (= !pc.next 79))
(define-fun .def_248 () Bool (and .def_203 .def_245))
(define-fun .def_236 () Bool (= |!{$(in_main#0)<$(in__strcmp#5)<i>>}.next| 0))
(define-fun .def_16 () Int (! |!{$(in_main#0)<N>}| :next |!{$(in_main#0)<N>}.next|))
(define-fun .def_233 () Bool (= |!{$(in_main#0)<$(in__strcmp#5)<N>>}.next| .def_16))
(define-fun .def_20 () Int (! |!{$(in_main#0)<&b>}| :next |!{$(in_main#0)<&b>}.next|))
(define-fun .def_231 () Bool (= |!{$(in_main#0)<$(in__strcmp#5)<dst>>}.next| .def_20))
(define-fun .def_18 () Int (! |!{$(in_main#0)<&a>}| :next |!{$(in_main#0)<&a>}.next|))
(define-fun .def_230 () Bool (= |!{$(in_main#0)<$(in__strcmp#5)<src>>}.next| .def_18))
(define-fun .def_232 () Bool (and .def_230 .def_231))
(define-fun .def_234 () Bool (and .def_232 .def_233))
(define-fun .def_111 () Bool (= .def_16 |!{$(in_main#0)<N>}.next|))
(define-fun .def_235 () Bool (and .def_111 .def_234))
(define-fun .def_237 () Bool (and .def_235 .def_236))
(define-fun .def_114 () Bool (= .def_18 |!{$(in_main#0)<&a>}.next|))
(define-fun .def_238 () Bool (and .def_114 .def_237))
(define-fun .def_116 () Bool (= .def_20 |!{$(in_main#0)<&b>}.next|))
(define-fun .def_239 () Bool (and .def_116 .def_238))
(define-fun .def_22 () Int (! |!{$(in_main#0)<i>}| :next |!{$(in_main#0)<i>}.next|))
(define-fun .def_118 () Bool (= .def_22 |!{$(in_main#0)<i>}.next|))
(define-fun .def_240 () Bool (and .def_118 .def_239))
(define-fun .def_24 () Int (! |!{$(in_main#0)<x>}| :next |!{$(in_main#0)<x>}.next|))
(define-fun .def_120 () Bool (= .def_24 |!{$(in_main#0)<x>}.next|))
(define-fun .def_241 () Bool (and .def_120 .def_240))
(define-fun .def_26 () Int (! |!{%memaddr}| :next |!{%memaddr}.next|))
(define-fun .def_122 () Bool (= .def_26 |!{%memaddr}.next|))
(define-fun .def_242 () Bool (and .def_122 .def_241))
(define-fun .def_28 () (Array Int Int) (! |!{%mem.0}| :next |!{%mem.0}.next|))
(define-fun .def_89 () Bool (= .def_28 |!{%mem.0}.next|))
(define-fun .def_243 () Bool (and .def_89 .def_242))
(define-fun .def_213 () Bool (<= .def_16 .def_22))
(define-fun .def_244 () Bool (and .def_213 .def_243))
(define-fun .def_249 () Bool (and .def_244 .def_248))
(define-fun .def_92 () Bool (= !pc.next 45))
(define-fun .def_246 () Bool (and .def_92 .def_245))
(define-fun .def_217 () Int (+ .def_20 .def_22))
(define-fun .def_215 () Int (+ .def_18 .def_22))
(define-fun .def_216 () (Array Int Int) (store .def_28 .def_215 |!{$(in_main#0)<$(in___VERIFIER_nondet_int#3)<h#<__VERIFIER_nondet_int.return>>>}|))
(define-fun .def_218 () (Array Int Int) (store .def_216 .def_217 |!{$(in_main#0)<$(in___VERIFIER_nondet_int#4)<h#<__VERIFIER_nondet_int.return>>>}|))
(define-fun .def_227 () Bool (= |!{%mem.0}.next| .def_218))
(define-fun .def_221 () Int (* (- 1) |!{$(in_main#0)<i>}.next|))
(define-fun .def_222 () Int (+ .def_22 .def_221))
(define-fun .def_223 () Bool (= .def_222 (- 1)))
(define-fun .def_12 () Int (! |!{$(in_main#0)<$(in__strcmp#5)<N>>}| :next |!{$(in_main#0)<$(in__strcmp#5)<N>>}.next|))
(define-fun .def_73 () Bool (= .def_12 |!{$(in_main#0)<$(in__strcmp#5)<N>>}.next|))
(define-fun .def_10 () Int (! |!{$(in_main#0)<$(in__strcmp#5)<dst>>}| :next |!{$(in_main#0)<$(in__strcmp#5)<dst>>}.next|))
(define-fun .def_71 () Bool (= .def_10 |!{$(in_main#0)<$(in__strcmp#5)<dst>>}.next|))
(define-fun .def_8 () Int (! |!{$(in_main#0)<$(in__strcmp#5)<src>>}| :next |!{$(in_main#0)<$(in__strcmp#5)<src>>}.next|))
(define-fun .def_70 () Bool (= .def_8 |!{$(in_main#0)<$(in__strcmp#5)<src>>}.next|))
(define-fun .def_72 () Bool (and .def_70 .def_71))
(define-fun .def_74 () Bool (and .def_72 .def_73))
(define-fun .def_126 () Bool (and .def_74 .def_111))
(define-fun .def_14 () Int (! |!{$(in_main#0)<$(in__strcmp#5)<i>>}| :next |!{$(in_main#0)<$(in__strcmp#5)<i>>}.next|))
(define-fun .def_77 () Bool (= .def_14 |!{$(in_main#0)<$(in__strcmp#5)<i>>}.next|))
(define-fun .def_127 () Bool (and .def_77 .def_126))
(define-fun .def_128 () Bool (and .def_114 .def_127))
(define-fun .def_129 () Bool (and .def_116 .def_128))
(define-fun .def_224 () Bool (and .def_129 .def_223))
(define-fun .def_225 () Bool (and .def_120 .def_224))
(define-fun .def_226 () Bool (and .def_122 .def_225))
(define-fun .def_228 () Bool (and .def_226 .def_227))
(define-fun .def_214 () Bool (not .def_213))
(define-fun .def_229 () Bool (and .def_214 .def_228))
(define-fun .def_247 () Bool (and .def_229 .def_246))
(define-fun .def_250 () Bool (or .def_247 .def_249))
(define-fun .def_202 () Bool (= .def_54 79))
(define-fun .def_154 () Bool (= !pc.next 0))
(define-fun .def_209 () Bool (and .def_154 .def_202))
(define-fun .def_174 () Bool (= |%{$(in_main#0)<$(in__strcmp#5)<_strcmp.return>>}#2| 0))
(define-fun .def_179 () Bool (not .def_174))
(define-fun .def_130 () Bool (and .def_118 .def_129))
(define-fun .def_140 () Bool (and .def_120 .def_130))
(define-fun .def_141 () Bool (and .def_122 .def_140))
(define-fun .def_142 () Bool (and .def_89 .def_141))
(define-fun .def_199 () Bool (and .def_142 .def_179))
(define-fun .def_161 () Bool (<= .def_12 .def_14))
(define-fun .def_176 () Bool (and .def_161 .def_174))
(define-fun .def_173 () Bool (= |%{$(in_main#0)<$(in__strcmp#5)<_strcmp.return>>}#2| 1))
(define-fun .def_165 () Int (+ .def_8 .def_14))
(define-fun .def_166 () Int (select .def_28 .def_165))
(define-fun .def_163 () Int (+ .def_10 .def_14))
(define-fun .def_164 () Int (select .def_28 .def_163))
(define-fun .def_167 () Bool (= .def_164 .def_166))
(define-fun .def_168 () Bool (not .def_167))
(define-fun .def_162 () Bool (not .def_161))
(define-fun .def_171 () Bool (and .def_162 .def_168))
(define-fun .def_175 () Bool (and .def_171 .def_173))
(define-fun .def_177 () Bool (or .def_175 .def_176))
(define-fun .def_200 () Bool (and .def_177 .def_199))
(define-fun .def_210 () Bool (and .def_200 .def_209))
(define-fun .def_150 () Bool (= !pc.next 117))
(define-fun .def_206 () Bool (and .def_150 .def_202))
(define-fun .def_193 () Bool (= |!{$(in_main#0)<x>}.next| 0))
(define-fun .def_194 () Bool (and .def_130 .def_193))
(define-fun .def_195 () Bool (and .def_122 .def_194))
(define-fun .def_196 () Bool (and .def_89 .def_195))
(define-fun .def_197 () Bool (and .def_174 .def_196))
(define-fun .def_198 () Bool (and .def_177 .def_197))
(define-fun .def_207 () Bool (and .def_198 .def_206))
(define-fun .def_204 () Bool (and .def_202 .def_203))
(define-fun .def_181 () Int (* (- 1) |!{$(in_main#0)<$(in__strcmp#5)<i>>}.next|))
(define-fun .def_182 () Int (+ .def_14 .def_181))
(define-fun .def_183 () Bool (= .def_182 (- 1)))
(define-fun .def_184 () Bool (and .def_126 .def_183))
(define-fun .def_185 () Bool (and .def_114 .def_184))
(define-fun .def_186 () Bool (and .def_116 .def_185))
(define-fun .def_187 () Bool (and .def_118 .def_186))
(define-fun .def_188 () Bool (and .def_120 .def_187))
(define-fun .def_189 () Bool (and .def_122 .def_188))
(define-fun .def_190 () Bool (and .def_89 .def_189))
(define-fun .def_191 () Bool (and .def_167 .def_190))
(define-fun .def_192 () Bool (and .def_162 .def_191))
(define-fun .def_205 () Bool (and .def_192 .def_204))
(define-fun .def_208 () Bool (or .def_205 .def_207))
(define-fun .def_211 () Bool (or .def_208 .def_210))
(define-fun .def_145 () Bool (= .def_54 117))
(define-fun .def_155 () Bool (and .def_145 .def_154))
(define-fun .def_95 () Bool (<= .def_16 .def_24))
(define-fun .def_143 () Bool (and .def_95 .def_142))
(define-fun .def_156 () Bool (and .def_143 .def_155))
(define-fun .def_151 () Bool (and .def_145 .def_150))
(define-fun .def_132 () Int (* (- 1) |!{$(in_main#0)<x>}.next|))
(define-fun .def_133 () Int (+ .def_24 .def_132))
(define-fun .def_134 () Bool (= .def_133 (- 1)))
(define-fun .def_135 () Bool (and .def_130 .def_134))
(define-fun .def_136 () Bool (and .def_122 .def_135))
(define-fun .def_137 () Bool (and .def_89 .def_136))
(define-fun .def_99 () Int (+ .def_20 .def_24))
(define-fun .def_100 () Int (select .def_28 .def_99))
(define-fun .def_97 () Int (+ .def_18 .def_24))
(define-fun .def_98 () Int (select .def_28 .def_97))
(define-fun .def_101 () Bool (= .def_98 .def_100))
(define-fun .def_102 () Int (ite .def_101 1 0))
(define-fun .def_103 () Bool (= .def_102 0))
(define-fun .def_104 () Bool (not .def_103))
(define-fun .def_138 () Bool (and .def_104 .def_137))
(define-fun .def_96 () Bool (not .def_95))
(define-fun .def_139 () Bool (and .def_96 .def_138))
(define-fun .def_152 () Bool (and .def_139 .def_151))
(define-fun .def_147 () Bool (= !pc.next 137))
(define-fun .def_148 () Bool (and .def_145 .def_147))
(define-fun .def_108 () Bool (and .def_70 .def_103))
(define-fun .def_109 () Bool (and .def_71 .def_108))
(define-fun .def_110 () Bool (and .def_73 .def_109))
(define-fun .def_112 () Bool (and .def_110 .def_111))
(define-fun .def_113 () Bool (and .def_77 .def_112))
(define-fun .def_115 () Bool (and .def_113 .def_114))
(define-fun .def_117 () Bool (and .def_115 .def_116))
(define-fun .def_119 () Bool (and .def_117 .def_118))
(define-fun .def_121 () Bool (and .def_119 .def_120))
(define-fun .def_123 () Bool (and .def_121 .def_122))
(define-fun .def_124 () Bool (and .def_89 .def_123))
(define-fun .def_125 () Bool (and .def_96 .def_124))
(define-fun .def_149 () Bool (and .def_125 .def_148))
(define-fun .def_153 () Bool (or .def_149 .def_152))
(define-fun .def_157 () Bool (or .def_153 .def_156))
(define-fun .def_93 () Bool (and .def_57 .def_92))
(define-fun .def_87 () Bool (= |!{%memaddr}.next| 3))
(define-fun .def_85 () Bool (= |!{$(in_main#0)<x>}.next| |%{$(in_main#0)<x>}#1|))
(define-fun .def_83 () Bool (= |!{$(in_main#0)<i>}.next| 0))
(define-fun .def_81 () Bool (= |!{$(in_main#0)<&b>}.next| 2))
(define-fun .def_79 () Bool (= |!{$(in_main#0)<&a>}.next| 1))
(define-fun .def_75 () Bool (= |!{$(in_main#0)<N>}.next| |!{$(in_main#0)<$(in___VERIFIER_nondet_int#2)<h#<__VERIFIER_nondet_int.return>>>}|))
(define-fun .def_76 () Bool (and .def_74 .def_75))
(define-fun .def_78 () Bool (and .def_76 .def_77))
(define-fun .def_80 () Bool (and .def_78 .def_79))
(define-fun .def_82 () Bool (and .def_80 .def_81))
(define-fun .def_84 () Bool (and .def_82 .def_83))
(define-fun .def_86 () Bool (and .def_84 .def_85))
(define-fun .def_88 () Bool (and .def_86 .def_87))
(define-fun .def_90 () Bool (and .def_88 .def_89))
(define-fun .def_94 () Bool (and .def_90 .def_93))
(define-fun .def_158 () Bool (or .def_94 .def_157))
(define-fun .def_212 () Bool (or .def_158 .def_211))
(define-fun .def_251 () Bool (! (or .def_212 .def_250) :trans true))
(define-fun .def_159 () Bool (= .def_54 137))
(define-fun .def_252 () Bool (! (not .def_159) :invar-property 0 :invar-property-name ||))
(assert true)
